c 208_3_checker_6cl.cnf
c
c field = 208
c formula set type = 3_checker_6cl
c
p cnf 6 10
408 
410 
412 
-407 
-404 
-416 
409 
411 
413 
-406 
-405 
-417 
408 
410 
412 
-417 
-406 
-418 
409 
411 
413 
-416 
-407 
-419 
410 
412 
416 
-409 
-406 
-418 
411 
413 
417 
-408 
-407 
-419 
324 
354 
384 
-295 
-264 
-444 
325 
355 
385 
-294 
-265 
-445 
318 
350 
382 
-287 
-254 
-446 
319 
351 
383 
-286 
-255 
-447 
